MnFeNiGe_hex
1.0
        8.1707401276         0.0000000000         0.0000000000
       -4.0853700638         7.0760685182         0.0000000000
        0.0000000000         0.0000000000        10.5284595490
   Ni   Ge   Mn   Fe
   16   16   15    1
Direct
     0.666666666         0.833333333         0.375000000
     0.333333333         0.166666666         0.625000000
     0.166666666         0.833333333         0.375000000
     0.833333333         0.166666666         0.625000000
     0.166666666         0.333333333         0.375000000
     0.833333333         0.666666666         0.625000000
     0.833333333         0.666666666         0.125000000
     0.166666666         0.333333333         0.875000000
     0.333333333         0.166666666         0.125000000
     0.666666666         0.833333333         0.875000000
     0.833333333         0.166666666         0.125000000
     0.166666666         0.833333333         0.875000000
     0.333333333         0.666666666         0.125000000
     0.666666666         0.333333333         0.875000000
     0.666666666         0.333333333         0.375000000
     0.333333333         0.666666666         0.625000000
     0.666666666         0.833333333         0.125000000
     0.333333313         0.166666666         0.875000000
     0.166666666         0.833333333         0.125000000
     0.833333333         0.166666666         0.875000000
     0.166666666         0.333333333         0.125000000
     0.833333333         0.666666666         0.875000000
     0.833333333         0.666666666         0.375000000
     0.166666666         0.333333333         0.625000000
     0.333333333         0.166666666         0.375000000
     0.666666666         0.833333333         0.625000000
     0.833333333         0.166666666         0.375000000
     0.166666666         0.833333333         0.625000000
     0.333333333         0.666666666         0.375000000
     0.666666666         0.333333333         0.625000000
     0.666666666         0.333333333         0.125000000
     0.333333333         0.666666666         0.875000000
     0.500000000         0.500000000         0.000000000
     0.500000000         0.000000000         0.000000000
     0.000000000         0.500000000         0.000000000
     0.500000000         0.500000000         0.250000000
     0.500000000         0.500000000         0.750000000
     0.500000000         0.000000000         0.250000000
     0.500000000         0.000000000         0.750000000
     0.000000000         0.500000000         0.250000000
     0.000000000         0.500000000         0.750000000
     0.000000000         0.000000000         0.000000000
     0.000000000         0.000000000         0.250000000
     0.000000000         0.000000000         0.750000000
     0.500000000         0.500000000         0.500000000
     0.500000000         0.000000000         0.500000000
     0.000000000         0.500000000         0.500000000
     0.000000000         0.000000000         0.500000000
