MnFeNiGe_hex
1.0
        8.1330404282         0.0000000000         0.0000000000
       -4.0665202141         7.0434196208         0.0000000000
        0.0000000000         0.0000000000         9.9874601364
   Ni   Ge   Mn   Fe
   16   16   15    1
Direct
     0.666666666         0.833333333         0.375000000
     0.333333333         0.166666666         0.625000000
     0.166666666         0.833333333         0.375000000
     0.833333333         0.166666666         0.625000000
     0.166666666         0.333333333         0.375000000
     0.833333333         0.666666666         0.625000000
     0.833333333         0.666666666         0.125000000
     0.166666666         0.333333333         0.875000000
     0.333333333         0.166666666         0.125000000
     0.666666666         0.833333333         0.875000000
     0.833333333         0.166666666         0.125000000
     0.166666666         0.833333333         0.875000000
     0.333333333         0.666666666         0.125000000
     0.666666666         0.333333333         0.875000000
     0.666666666         0.333333333         0.375000000
     0.333333333         0.666666666         0.625000000
     0.666666666         0.833333333         0.125000000
     0.333333313         0.166666666         0.875000000
     0.166666666         0.833333333         0.125000000
     0.833333333         0.166666666         0.875000000
     0.166666666         0.333333333         0.125000000
     0.833333333         0.666666666         0.875000000
     0.833333333         0.666666666         0.375000000
     0.166666666         0.333333333         0.625000000
     0.333333333         0.166666666         0.375000000
     0.666666666         0.833333333         0.625000000
     0.833333333         0.166666666         0.375000000
     0.166666666         0.833333333         0.625000000
     0.333333333         0.666666666         0.375000000
     0.666666666         0.333333333         0.625000000
     0.666666666         0.333333333         0.125000000
     0.333333333         0.666666666         0.875000000
     0.500000000         0.500000000         0.000000000
     0.500000000         0.000000000         0.000000000
     0.000000000         0.500000000         0.000000000
     0.500000000         0.500000000         0.250000000
     0.500000000         0.500000000         0.750000000
     0.500000000         0.000000000         0.250000000
     0.500000000         0.000000000         0.750000000
     0.000000000         0.500000000         0.250000000
     0.000000000         0.500000000         0.750000000
     0.000000000         0.000000000         0.000000000
     0.000000000         0.000000000         0.250000000
     0.000000000         0.000000000         0.750000000
     0.500000000         0.500000000         0.500000000
     0.500000000         0.000000000         0.500000000
     0.000000000         0.500000000         0.500000000
     0.000000000         0.000000000         0.500000000
