MnNiGe_orth                             
   1.00500000000000     
    12.0358897821617301    0.0000000000000000    0.0000000000000000
     0.0000000000000000    7.4356254748060264    0.0000000000000000
     0.0000000000000000    0.0000000000000000    7.0446418581446197
   Mn   Ni   Ge   Fe
    15    16    16     1
Direct
  0.2418999969999973  0.2500000000000000  0.1782999930000031
  0.2418999969999973  0.7500000000000000  0.1782999930000031
  0.4918999969999973  0.2500000000000000  0.3217000069999969
  0.4918999969999973  0.7500000000000000  0.3217000069999969
  0.7419000269999998  0.2500000000000000  0.1782999930000031
  0.7419000269999998  0.7500000000000000  0.1782999930000031
  0.9919000269999998  0.2500000000000000  0.3217000069999969
  0.9919000269999998  0.7500000000000000  0.3217000069999969
  0.0080999999999989  0.0000000000000000  0.6783000229999985
  0.2581000030000027  0.0000000000000000  0.8216999770000015
  0.5080999730000002  0.0000000000000000  0.6783000229999985
  0.7580999730000002  0.0000000000000000  0.8216999770000015
  0.0080999999999989  0.5000000000000000  0.6783000229999985
  0.2581000030000027  0.5000000000000000  0.8216999770000015
  0.7580999730000002  0.5000000000000000  0.8216999770000015
  0.1766999960000035  0.2500000000000000  0.5533000229999985
  0.1766999960000035  0.7500000000000000  0.5533000229999985
  0.4266999960000035  0.2500000000000000  0.9466999770000015
  0.4266999960000035  0.7500000000000000  0.9466999770000015
  0.6766999959999964  0.2500000000000000  0.5533000229999985
  0.6766999959999964  0.7500000000000000  0.5533000229999985
  0.9266999959999964  0.2500000000000000  0.9466999770000015
  0.9266999959999964  0.7500000000000000  0.9466999770000015
  0.0732999969999995  0.0000000000000000  0.0533000009999967
  0.3233000039999965  0.0000000000000000  0.4467000069999969
  0.5733000040000036  0.0000000000000000  0.0533000009999967
  0.8233000040000036  0.0000000000000000  0.4467000069999969
  0.0732999969999995  0.5000000000000000  0.0533000009999967
  0.3233000039999965  0.5000000000000000  0.4467000069999969
  0.5733000040000036  0.5000000000000000  0.0533000009999967
  0.8233000040000036  0.5000000000000000  0.4467000069999969
  0.1252499969999974  0.2500000000000000  0.8783000110000003
  0.1252499969999974  0.7500000000000000  0.8783000110000003
  0.3752500120000022  0.2500000000000000  0.6216999889999997
  0.3752500120000022  0.7500000000000000  0.6216999889999997
  0.6252499819999997  0.2500000000000000  0.8783000110000003
  0.6252499819999997  0.7500000000000000  0.8783000110000003
  0.8752499819999997  0.2500000000000000  0.6216999889999997
  0.8752499819999997  0.7500000000000000  0.6216999889999997
  0.1247500030000026  0.0000000000000000  0.3783000110000003
  0.3747499879999978  0.0000000000000000  0.1216999959999967
  0.6247500180000003  0.0000000000000000  0.3783000110000003
  0.8747500180000003  0.0000000000000000  0.1216999959999967
  0.1247500030000026  0.5000000000000000  0.3783000110000003
  0.3747499879999978  0.5000000000000000  0.1216999959999967
  0.6247500180000003  0.5000000000000000  0.3783000110000003
  0.8747500180000003  0.5000000000000000  0.1216999959999967
  0.5080999730000002  0.5000000000000000  0.6783000229999985
 
  0.00000000E+00  0.00000000E+00  0.00000000E+00
  0.00000000E+00  0.00000000E+00  0.00000000E+00
  0.00000000E+00  0.00000000E+00  0.00000000E+00
  0.00000000E+00  0.00000000E+00  0.00000000E+00
  0.00000000E+00  0.00000000E+00  0.00000000E+00
  0.00000000E+00  0.00000000E+00  0.00000000E+00
  0.00000000E+00  0.00000000E+00  0.00000000E+00
  0.00000000E+00  0.00000000E+00  0.00000000E+00
  0.00000000E+00  0.00000000E+00  0.00000000E+00
  0.00000000E+00  0.00000000E+00  0.00000000E+00
  0.00000000E+00  0.00000000E+00  0.00000000E+00
  0.00000000E+00  0.00000000E+00  0.00000000E+00
  0.00000000E+00  0.00000000E+00  0.00000000E+00
  0.00000000E+00  0.00000000E+00  0.00000000E+00
  0.00000000E+00  0.00000000E+00  0.00000000E+00
  0.00000000E+00  0.00000000E+00  0.00000000E+00
  0.00000000E+00  0.00000000E+00  0.00000000E+00
  0.00000000E+00  0.00000000E+00  0.00000000E+00
  0.00000000E+00  0.00000000E+00  0.00000000E+00
  0.00000000E+00  0.00000000E+00  0.00000000E+00
  0.00000000E+00  0.00000000E+00  0.00000000E+00
  0.00000000E+00  0.00000000E+00  0.00000000E+00
  0.00000000E+00  0.00000000E+00  0.00000000E+00
  0.00000000E+00  0.00000000E+00  0.00000000E+00
  0.00000000E+00  0.00000000E+00  0.00000000E+00
  0.00000000E+00  0.00000000E+00  0.00000000E+00
  0.00000000E+00  0.00000000E+00  0.00000000E+00
  0.00000000E+00  0.00000000E+00  0.00000000E+00
  0.00000000E+00  0.00000000E+00  0.00000000E+00
  0.00000000E+00  0.00000000E+00  0.00000000E+00
  0.00000000E+00  0.00000000E+00  0.00000000E+00
  0.00000000E+00  0.00000000E+00  0.00000000E+00
  0.00000000E+00  0.00000000E+00  0.00000000E+00
  0.00000000E+00  0.00000000E+00  0.00000000E+00
  0.00000000E+00  0.00000000E+00  0.00000000E+00
  0.00000000E+00  0.00000000E+00  0.00000000E+00
  0.00000000E+00  0.00000000E+00  0.00000000E+00
  0.00000000E+00  0.00000000E+00  0.00000000E+00
  0.00000000E+00  0.00000000E+00  0.00000000E+00
  0.00000000E+00  0.00000000E+00  0.00000000E+00
  0.00000000E+00  0.00000000E+00  0.00000000E+00
  0.00000000E+00  0.00000000E+00  0.00000000E+00
  0.00000000E+00  0.00000000E+00  0.00000000E+00
  0.00000000E+00  0.00000000E+00  0.00000000E+00
  0.00000000E+00  0.00000000E+00  0.00000000E+00
  0.00000000E+00  0.00000000E+00  0.00000000E+00
  0.00000000E+00  0.00000000E+00  0.00000000E+00
  0.00000000E+00  0.00000000E+00  0.00000000E+00
