MnNiGe_orth
1.0
       12.0413198471         0.0000000000         0.0000000000
        0.0000000000         7.4389801025         0.0000000000
        0.0000000000         0.0000000000         7.0478200912
   Mn   Ni   Ge   Fe
   15   16   16    1
Direct
     0.241899997         0.250000000         0.178299993
     0.241899997         0.750000000         0.178299993
     0.491899997         0.250000000         0.321700007
     0.491899997         0.750000000         0.321700007
     0.741900027         0.250000000         0.178299993
     0.741900027         0.750000000         0.178299993
     0.991900027         0.250000000         0.321700007
     0.991900027         0.750000000         0.321700007
     0.008100000         0.000000000         0.678300023
     0.258100003         0.000000000         0.821699977
     0.508099973         0.000000000         0.678300023
     0.758099973         0.000000000         0.821699977
     0.008100000         0.500000000         0.678300023
     0.258100003         0.500000000         0.821699977
     0.758099973         0.500000000         0.821699977
     0.176699996         0.250000000         0.553300023
     0.176699996         0.750000000         0.553300023
     0.426699996         0.250000000         0.946699977
     0.426699996         0.750000000         0.946699977
     0.676699996         0.250000000         0.553300023
     0.676699996         0.750000000         0.553300023
     0.926699996         0.250000000         0.946699977
     0.926699996         0.750000000         0.946699977
     0.073299997         0.000000000         0.053300001
     0.323300004         0.000000000         0.446700007
     0.573300004         0.000000000         0.053300001
     0.823300004         0.000000000         0.446700007
     0.073299997         0.500000000         0.053300001
     0.323300004         0.500000000         0.446700007
     0.573300004         0.500000000         0.053300001
     0.823300004         0.500000000         0.446700007
     0.125249997         0.250000000         0.878300011
     0.125249997         0.750000000         0.878300011
     0.375250012         0.250000000         0.621699989
     0.375250012         0.750000000         0.621699989
     0.625249982         0.250000000         0.878300011
     0.625249982         0.750000000         0.878300011
     0.875249982         0.250000000         0.621699989
     0.875249982         0.750000000         0.621699989
     0.124750003         0.000000000         0.378300011
     0.374749988         0.000000000         0.121699996
     0.624750018         0.000000000         0.378300011
     0.874750018         0.000000000         0.121699996
     0.124750003         0.500000000         0.378300011
     0.374749988         0.500000000         0.121699996
     0.624750018         0.500000000         0.378300011
     0.874750018         0.500000000         0.121699996
     0.508099973         0.500000000         0.678300023
