MnFeNiGe_hex                            
   1.00000000000000     
     8.1302281060381656    0.0000000000000000    0.0000000000000000
    -4.0651140530190828    7.0409840783642537    0.0000000000000000
     0.0000000000000000    0.0000000000000000    9.9845813688155651
   Ni   Ge   Mn   Fe
    16    16    15     1
Direct
  0.6666666659999976  0.8333333329999988  0.3750000000000000
  0.3333333329999988  0.1666666659999976  0.6250000000000000
  0.1666666659999976  0.8333333329999988  0.3750000000000000
  0.8333333329999988  0.1666666659999976  0.6250000000000000
  0.1666666659999976  0.3333333329999988  0.3750000000000000
  0.8333333329999988  0.6666666659999976  0.6250000000000000
  0.8333333329999988  0.6666666659999976  0.1250000000000000
  0.1666666659999976  0.3333333329999988  0.8750000000000000
  0.3333333329999988  0.1666666659999976  0.1250000000000000
  0.6666666659999976  0.8333333329999988  0.8750000000000000
  0.8333333329999988  0.1666666659999976  0.1250000000000000
  0.1666666659999976  0.8333333329999988  0.8750000000000000
  0.3333333329999988  0.6666666659999976  0.1250000000000000
  0.6666666659999976  0.3333333329999988  0.8750000000000000
  0.6666666659999976  0.3333333329999988  0.3750000000000000
  0.3333333329999988  0.6666666659999976  0.6250000000000000
  0.6666666659999976  0.8333333329999988  0.1250000000000000
  0.3333333129999971  0.1666666659999976  0.8750000000000000
  0.1666666659999976  0.8333333329999988  0.1250000000000000
  0.8333333329999988  0.1666666659999976  0.8750000000000000
  0.1666666659999976  0.3333333329999988  0.1250000000000000
  0.8333333329999988  0.6666666659999976  0.8750000000000000
  0.8333333329999988  0.6666666659999976  0.3750000000000000
  0.1666666659999976  0.3333333329999988  0.6250000000000000
  0.3333333329999988  0.1666666659999976  0.3750000000000000
  0.6666666659999976  0.8333333329999988  0.6250000000000000
  0.8333333329999988  0.1666666659999976  0.3750000000000000
  0.1666666659999976  0.8333333329999988  0.6250000000000000
  0.3333333329999988  0.6666666659999976  0.3750000000000000
  0.6666666659999976  0.3333333329999988  0.6250000000000000
  0.6666666659999976  0.3333333329999988  0.1250000000000000
  0.3333333329999988  0.6666666659999976  0.8750000000000000
  0.5000000000000000  0.5000000000000000  0.0000000000000000
  0.5000000000000000  0.0000000000000000  0.0000000000000000
  0.0000000000000000  0.5000000000000000  0.0000000000000000
  0.5000000000000000  0.5000000000000000  0.2500000000000000
  0.5000000000000000  0.5000000000000000  0.7500000000000000
  0.5000000000000000  0.0000000000000000  0.2500000000000000
  0.5000000000000000  0.0000000000000000  0.7500000000000000
  0.0000000000000000  0.5000000000000000  0.2500000000000000
  0.0000000000000000  0.5000000000000000  0.7500000000000000
  0.0000000000000000  0.0000000000000000  0.0000000000000000
  0.0000000000000000  0.0000000000000000  0.2500000000000000
  0.0000000000000000  0.0000000000000000  0.7500000000000000
  0.5000000000000000  0.5000000000000000  0.5000000000000000
  0.5000000000000000  0.0000000000000000  0.5000000000000000
  0.0000000000000000  0.5000000000000000  0.5000000000000000
  0.0000000000000000  0.0000000000000000  0.5000000000000000
 
  0.00000000E+00  0.00000000E+00  0.00000000E+00
  0.00000000E+00  0.00000000E+00  0.00000000E+00
  0.00000000E+00  0.00000000E+00  0.00000000E+00
  0.00000000E+00  0.00000000E+00  0.00000000E+00
  0.00000000E+00  0.00000000E+00  0.00000000E+00
  0.00000000E+00  0.00000000E+00  0.00000000E+00
  0.00000000E+00  0.00000000E+00  0.00000000E+00
  0.00000000E+00  0.00000000E+00  0.00000000E+00
  0.00000000E+00  0.00000000E+00  0.00000000E+00
  0.00000000E+00  0.00000000E+00  0.00000000E+00
  0.00000000E+00  0.00000000E+00  0.00000000E+00
  0.00000000E+00  0.00000000E+00  0.00000000E+00
  0.00000000E+00  0.00000000E+00  0.00000000E+00
  0.00000000E+00  0.00000000E+00  0.00000000E+00
  0.00000000E+00  0.00000000E+00  0.00000000E+00
  0.00000000E+00  0.00000000E+00  0.00000000E+00
  0.00000000E+00  0.00000000E+00  0.00000000E+00
  0.00000000E+00  0.00000000E+00  0.00000000E+00
  0.00000000E+00  0.00000000E+00  0.00000000E+00
  0.00000000E+00  0.00000000E+00  0.00000000E+00
  0.00000000E+00  0.00000000E+00  0.00000000E+00
  0.00000000E+00  0.00000000E+00  0.00000000E+00
  0.00000000E+00  0.00000000E+00  0.00000000E+00
  0.00000000E+00  0.00000000E+00  0.00000000E+00
  0.00000000E+00  0.00000000E+00  0.00000000E+00
  0.00000000E+00  0.00000000E+00  0.00000000E+00
  0.00000000E+00  0.00000000E+00  0.00000000E+00
  0.00000000E+00  0.00000000E+00  0.00000000E+00
  0.00000000E+00  0.00000000E+00  0.00000000E+00
  0.00000000E+00  0.00000000E+00  0.00000000E+00
  0.00000000E+00  0.00000000E+00  0.00000000E+00
  0.00000000E+00  0.00000000E+00  0.00000000E+00
  0.00000000E+00  0.00000000E+00  0.00000000E+00
  0.00000000E+00  0.00000000E+00  0.00000000E+00
  0.00000000E+00  0.00000000E+00  0.00000000E+00
  0.00000000E+00  0.00000000E+00  0.00000000E+00
  0.00000000E+00  0.00000000E+00  0.00000000E+00
  0.00000000E+00  0.00000000E+00  0.00000000E+00
  0.00000000E+00  0.00000000E+00  0.00000000E+00
  0.00000000E+00  0.00000000E+00  0.00000000E+00
  0.00000000E+00  0.00000000E+00  0.00000000E+00
  0.00000000E+00  0.00000000E+00  0.00000000E+00
  0.00000000E+00  0.00000000E+00  0.00000000E+00
  0.00000000E+00  0.00000000E+00  0.00000000E+00
  0.00000000E+00  0.00000000E+00  0.00000000E+00
  0.00000000E+00  0.00000000E+00  0.00000000E+00
  0.00000000E+00  0.00000000E+00  0.00000000E+00
  0.00000000E+00  0.00000000E+00  0.00000000E+00
