SYSTEM =MnFeNiGe_nmag_orth-SCF

INCAR-basic
   ISTART	= 1		
   ENCUT  = 450 eV
   LREAL  = .FALSE
   PREC   = Accurate 
   EDIFF  = 1E-6
   NPAR   = 4
   NBANDS = 360
  #ADDGRID = .FALSE 

Magnetism property   
   ISPIN = 1    ## For magnetism set
#  MAGMOM = 3*1
#  LORBIT = 11

Electronic Relaxation
   ISMEAR = 1
   SIGMA  = 0.2
   NELM   = 60
   NELMIN = 5
   
Ionic Relaxation
   NSW    = 0    
   IBRION = -1
   ISIF   = 6            
   ISYM	  = 2
   
   LWAVE   = .FALSE  ##write WAVECAR or not
   LCHARG  = .TRUE ##write CHGCAR or not



